Route #1: 0 120 97 128 56 124 9 0
Route #2: 0 44 59 25 41 61 11 94 123 0
Route #3: 0 89 122 101 76 92 114 112 99 78 0
Route #4: 0 53 81 22 84 77 23 27 20 0
Route #5: 0 47 96 117 127 0
Route #6: 0 50 5 80 107 36 16 109 0
Route #7: 0 93 60 85 100 32 14 74 38 0
Route #8: 0 91 15 66 4 105 104 12 42 0
Route #9: 0 70 8 87 29 45 62 0
Route #10: 0 90 63 54 19 98 126 72 69 83 118 0
Route #11: 0 115 26 48 21 88 86 3 0
Route #12: 0 75 110 58 10 95 125 28 0
Route #13: 0 51 65 34 7 1 64 0
Route #14: 0 24 119 106 49 2 46 113 0
Route #15: 0 31 108 71 17 33 35 30 0
Route #16: 0 121 102 73 40 55 57 43 18 0
Route #17: 0 37 111 67 39 103 0
Route #18: 0 52 82 13 6 79 116 68 0
Cost 47004:
